venv/example #7/MCF_Model.mps
NAME netflow
ROWS
 N  OBJ
 L  c0      
 L  c1      
 L  c2      
 L  c3      
 L  c4      
 L  c5      
 L  c6      
 L  c7      
 L  c8      
 E  c9      
 E  c10     
 E  c11     
 E  c12     
 E  c13     
 E  c14     
 E  c15     
 E  c16     
 E  c17     
 E  c18     
COLUMNS
    flow[netflix,c,f]  OBJ       5
    flow[netflix,c,f]  c0        1
    flow[netflix,c,f]  c9        -1
    flow[netflix,c,f]  c12       1
    flow[netflix,f,b]  OBJ       6
    flow[netflix,f,b]  c1        1
    flow[netflix,f,b]  c12       -1
    flow[netflix,b,g]  OBJ       7
    flow[netflix,b,g]  c2        1
    flow[netflix,b,g]  c13       1
    flow[netflix,d,g]  OBJ       2
    flow[netflix,d,g]  c3        1
    flow[netflix,d,g]  c10       -1
    flow[netflix,d,g]  c13       1
    flow[netflix,a,d]  OBJ       1
    flow[netflix,a,d]  c4        1
    flow[netflix,a,d]  c10       1
    flow[netflix,f,laptop]  OBJ       4
    flow[netflix,f,laptop]  c5        1
    flow[netflix,f,laptop]  c12       -1
    flow[netflix,a,e]  OBJ       8
    flow[netflix,a,e]  c6        1
    flow[netflix,a,e]  c11       1
    flow[netflix,c,e]  OBJ       4
    flow[netflix,c,e]  c7        1
    flow[netflix,c,e]  c9        -1
    flow[netflix,c,e]  c11       1
    flow[netflix,g,mobile]  OBJ       3
    flow[netflix,g,mobile]  c8        1
    flow[netflix,g,mobile]  c13       -1
    flow[instagram,c,f]  OBJ       5
    flow[instagram,c,f]  c0        1
    flow[instagram,c,f]  c14       -1
    flow[instagram,c,f]  c17       1
    flow[instagram,f,b]  OBJ       6
    flow[instagram,f,b]  c1        1
    flow[instagram,f,b]  c17       -1
    flow[instagram,b,g]  OBJ       7
    flow[instagram,b,g]  c2        1
    flow[instagram,b,g]  c18       1
    flow[instagram,d,g]  OBJ       2
    flow[instagram,d,g]  c3        1
    flow[instagram,d,g]  c15       -1
    flow[instagram,d,g]  c18       1
    flow[instagram,a,d]  OBJ       1
    flow[instagram,a,d]  c4        1
    flow[instagram,a,d]  c15       1
    flow[instagram,f,laptop]  OBJ       4
    flow[instagram,f,laptop]  c5        1
    flow[instagram,f,laptop]  c17       -1
    flow[instagram,a,e]  OBJ       8
    flow[instagram,a,e]  c6        1
    flow[instagram,a,e]  c16       1
    flow[instagram,c,e]  OBJ       4
    flow[instagram,c,e]  c7        1
    flow[instagram,c,e]  c14       -1
    flow[instagram,c,e]  c16       1
    flow[instagram,g,mobile]  OBJ       3
    flow[instagram,g,mobile]  c8        1
    flow[instagram,g,mobile]  c18       -1
RHS
    RHS1      c0        90
    RHS1      c1        50
    RHS1      c2        46
    RHS1      c3        140
    RHS1      c4        130
    RHS1      c5        40
    RHS1      c6        112
    RHS1      c7        120
    RHS1      c8        100
    RHS1      c9        -1.7857142857142858e+00
    RHS1      c10       1.7857142857142856e+00
    RHS1      c11       3.7202380952380953e-01
    RHS1      c12       4.0922619047619047e-01
    RHS1      c13       1.7113095238095238e-01
    RHS1      c14       -3.2738095238095242e+00
    RHS1      c15       0.46875
    RHS1      c16       3.7202380952380952e-02
    RHS1      c17       2.6785714285714284e-02
    RHS1      c18       1.7857142857142858e+00
BOUNDS
ENDATA
